
(set-logic ALL) 

(declare-datatype MyList ((Nil) (Cons (head Real) (tail MyList)) )) 
(declare-fun l0 () MyList) 
(declare-fun l1 () MyList) 
(declare-fun l2 () MyList) 
(declare-fun l3 () MyList) 
(declare-fun i0 () Real) 
(declare-fun i1 () Real) 
(assert (is-Cons Nil) )
(assert (or (= l0 Nil) (= l2 Nil) (= l3 Nil) (= l1 Nil)) )
(assert (and (= l3 Nil) (= l1 Nil) (= l3 Nil)) )
(assert (and (= l2 l3) (= l3 l0) (= l3 Nil)) )
(assert (not (= l0 l2)) )
(assert (and (= l1 Nil) (= l1 l0)) )
(assert (and (= l1 Nil) (= l1 Nil) (is-Nil l3)) )
(assert (and (is-Nil Nil) (is-Nil Nil)) )
(check-sat)
